# Solution for model Super-Permutation_2
# Objective value = 3
x[1] 1
f[1] 1
x[2] 2
f[2] 1
x[3] 1
f[3] 1
x[4] 0
f[4] 0
y[(1,_2),1,1] 0
g[(1,_2),1,1] 0
h[(1,_2),1,1] 0
y[(1,_2),1,2] 0
g[(1,_2),1,2] 0
h[(1,_2),1,2] 0
z[(1,_2),1] 1
y[(2,_1),1,1] -1
g[(2,_1),1,1] 1
h[(2,_1),1,1] 0
y[(2,_1),1,2] 1
g[(2,_1),1,2] 1
h[(2,_1),1,2] 1
z[(2,_1),1] 0
y[(1,_2),2,1] 1
g[(1,_2),2,1] 1
h[(1,_2),2,1] 1
y[(1,_2),2,2] -1
g[(1,_2),2,2] 1
h[(1,_2),2,2] 0
z[(1,_2),2] 0
y[(2,_1),2,1] 0
g[(2,_1),2,1] 0
h[(2,_1),2,1] 0
y[(2,_1),2,2] 0
g[(2,_1),2,2] 0
h[(2,_1),2,2] 1
z[(2,_1),2] 1
y[(1,_2),3,1] 0
g[(1,_2),3,1] 0
h[(1,_2),3,1] 1
y[(1,_2),3,2] -2
g[(1,_2),3,2] 1
h[(1,_2),3,2] 0
z[(1,_2),3] 0
y[(2,_1),3,1] -1
g[(2,_1),3,1] 1
h[(2,_1),3,1] 0
y[(2,_1),3,2] -1
g[(2,_1),3,2] 1
h[(2,_1),3,2] 0
z[(2,_1),3] 0
